(set-logic QF_S)
(declare-fun var0 () String)
(assert (str.in.re var0 (re.++ (re.+ (re.* (str.to.re "0"))) (re.++ (re.+ (re.+ (str.to.re "111"))) (re.++ (re.+ (re.* (str.to.re "22"))) (re.++ (re.union (re.+ (str.to.re "3")) (re.+ (str.to.re "444"))) (re.++ (re.union (re.union (str.to.re "555") (str.to.re "6")) (re.union (str.to.re "7") (str.to.re "8"))) (re.++ (re.* (re.union (str.to.re "99") (str.to.re "aaa"))) (re.* (re.+ (str.to.re "bb")))))))))))
(check-sat)